1825.89
0 54 19 11 7 0
0 44 18 24 36 29 27 0
0 9 50 56 63 51 0
0 43 49 55 39 17 75 0
0 65 14 59 20 0
0 53 66 25 46 0
0 45 28 64 3 0
0 42 16 32 8 52 0
0 70 60 71 48 41 4 0
0 2 33 40 0
0 37 69 22 1 74 30 0
0 47 15 13 38 12 73 0
0 10 31 72 58 35 57 0
0 61 62 23 26 67 0
0 5 21 68 6 34 0
